Gurobi Optimizer version 11.0.2 build v11.0.2rc0 (linux64 - "Ubuntu 20.04.6 LTS")

CPU model: Intel(R) Core(TM) i7-6600U CPU @ 2.60GHz, instruction set [SSE2|AVX|AVX2]
Thread count: 2 physical cores, 4 logical processors, using up to 4 threads

Optimize a model with 306 rows, 215 columns and 830 nonzeros
Model fingerprint: 0xf1d50f4b
Model has 45 quadratic constraints
Variable types: 170 continuous, 45 integer (45 binary)
Coefficient statistics:
  Matrix range     [7e-04, 5e+02]
  QMatrix range    [1e+00, 1e+00]
  Objective range  [1e+00, 3e+01]
  Bounds range     [1e+00, 8e+01]
  RHS range        [1e+00, 5e+02]

MIP start from previous solve did not produce a new incumbent solution
MIP start from previous solve violates constraint interdiction_fixation[sink_6,sink_22] by 1.000000000

Presolve removed 172 rows and 27 columns
Presolve time: 0.00s

Explored 0 nodes (0 simplex iterations) in 0.00 seconds (0.00 work units)
Thread count was 1 (of 4 available processors)

Solution count 0

Model is infeasible
Best objective -, best bound -, gap -
Warning: Q constraint 0 doesn't have a name
